# x   |  y    | demand	| numItems | l - w (for each item)
0.0	0.0	0.0	0
3.0	1.0	300.0	2	6	5	23	2
3.0	3.0	300.0	1	22	3
1.0	3.0	300.0	1	22	3
-1.0	3.0	300.0	3	8	4	22	3	13	3
-3.0	3.0	300.0	4	5	8	8	7	25	3	24	2
-3.0	1.0	300.0	3	8	14	10	5	13	3
-3.0	-1.0	300.0	3	15	6	25	3	17	3
-3.0	-3.0	300.0	4	5	9	11	6	23	4	20	3
-1.0	-3.0	300.0	4	6	10	26	4	16	4	12	4
1.0	-3.0	300.0	2	9	5	28	3
3.0	-3.0	300.0	4	7	13	6	12	4	5	27	2
3.0	-1.0	300.0	2	7	7	8	6
5.0	1.0	180.0	3	14	7	18	3	12	2
5.0	3.0	180.0	4	4	12	5	7	11	4	19	3
5.0	5.0	180.0	3	11	6	31	3	24	3
3.0	5.0	180.0	1	13	7
1.0	5.0	180.0	1	5	9
-1.0	5.0	180.0	2	7	6	15	2
-3.0	5.0	180.0	2	5	13	5	5
-5.0	5.0	180.0	4	10	6	5	4	15	3	14	3
-5.0	3.0	180.0	3	17	3	13	3	5	3
-5.0	1.0	180.0	1	26	2
-5.0	-1.0	180.0	4	4	11	8	4	26	3	21	3
-5.0	-3.0	180.0	2	7	5	15	2
-5.0	-5.0	180.0	1	16	2
-3.0	-5.0	180.0	4	10	7	10	7	14	3	21	2
-1.0	-5.0	180.0	4	6	5	21	4	12	3	13	2
1.0	-5.0	180.0	3	8	13	8	11	29	4
3.0	-5.0	180.0	1	17	2
5.0	-5.0	180.0	3	8	13	5	8	22	2
5.0	-3.0	180.0	4	5	11	6	6	10	5	27	2
5.0	-1.0	180.0	3	7	10	5	8	14	4
7.0	1.0	128.0	4	6	14	13	7	13	4	15	3
7.0	3.0	128.0	3	6	7	25	4	13	3
7.0	5.0	128.0	1	8	11
7.0	7.0	128.0	2	7	5	9	3
5.0	7.0	128.0	1	16	3
3.0	7.0	128.0	1	6	8
1.0	7.0	128.0	4	5	9	5	9	24	3	20	3
-1.0	7.0	128.0	2	6	10	14	3
-3.0	7.0	128.0	2	15	5	31	3
-5.0	7.0	128.0	4	12	8	6	7	5	7	17	2
-7.0	7.0	128.0	1	5	5
-7.0	5.0	128.0	2	5	14	14	4
-7.0	3.0	128.0	4	9	7	8	6	10	5	7	3
-7.0	1.0	128.0	2	5	8	27	4
-7.0	-1.0	128.0	3	6	14	7	10	14	2
-7.0	-3.0	128.0	2	5	5	11	2
-7.0	-5.0	128.0	2	31	4	26	4
-7.0	-7.0	128.0	4	7	6	25	4	19	4	16	3
-5.0	-7.0	128.0	3	7	9	6	9	5	3
-3.0	-7.0	128.0	1	16	3
-1.0	-7.0	128.0	1	15	4
1.0	-7.0	128.0	2	5	6	15	2
3.0	-7.0	128.0	2	7	11	11	2
5.0	-7.0	128.0	4	5	5	22	3	13	3	14	2
7.0	-7.0	128.0	1	18	4
7.0	-5.0	128.0	2	5	5	14	3
7.0	-3.0	128.0	2	13	5	17	3
7.0	-1.0	128.0	3	25	3	7	3	17	2
9.0	1.0	100.0	2	7	12	5	4
9.0	3.0	100.0	3	5	11	6	8	31	2
9.0	5.0	100.0	4	8	11	6	11	7	8	26	3
9.0	7.0	100.0	3	12	5	12	4	22	3
9.0	9.0	100.0	1	25	2
7.0	9.0	100.0	4	16	7	9	4	26	3	24	2
5.0	9.0	100.0	1	6	10
3.0	9.0	100.0	2	6	5	13	2
1.0	9.0	100.0	1	5	4
-1.0	9.0	100.0	1	7	2
-3.0	9.0	100.0	2	16	3	26	2
-5.0	9.0	100.0	3	15	4	9	4	16	3
-7.0	9.0	100.0	1	17	2
-9.0	9.0	100.0	2	7	10	23	3
-9.0	7.0	100.0	2	7	8	25	3
-9.0	5.0	100.0	3	6	4	14	3	14	2
-9.0	3.0	100.0	1	24	3
-9.0	1.0	100.0	2	15	4	20	3
-9.0	-1.0	100.0	1	13	2
-9.0	-3.0	100.0	1	6	12
-9.0	-5.0	100.0	4	6	13	6	9	18	3	19	2
-9.0	-7.0	100.0	3	4	10	5	9	7	5
-9.0	-9.0	100.0	1	6	5
-7.0	-9.0	100.0	3	8	10	7	5	18	3
-5.0	-9.0	100.0	1	12	3
-3.0	-9.0	100.0	1	6	5
-1.0	-9.0	100.0	3	5	13	8	9	31	3
1.0	-9.0	100.0	1	27	4
3.0	-9.0	100.0	2	12	7	21	2
5.0	-9.0	100.0	2	7	5	11	2
7.0	-9.0	100.0	1	6	10
9.0	-9.0	100.0	4	16	7	6	7	6	6	15	4
9.0	-7.0	100.0	4	5	13	5	7	7	5	13	3
9.0	-5.0	100.0	3	7	10	4	4	27	3
9.0	-3.0	100.0	4	7	7	5	7	18	4	30	3
9.0	-1.0	100.0	4	5	11	18	3	6	3	13	2
11.0	1.0	81.0	4	15	5	7	4	14	3	26	2
11.0	3.0	81.0	3	15	7	13	6	7	4
11.0	5.0	81.0	4	6	10	6	7	6	5	27	3
11.0	7.0	81.0	1	21	4
11.0	9.0	81.0	2	7	12	5	3
11.0	11.0	81.0	1	17	3
9.0	11.0	81.0	2	6	10	8	7
7.0	11.0	81.0	1	6	9
5.0	11.0	81.0	1	26	3
3.0	11.0	81.0	1	4	13
1.0	11.0	81.0	4	7	6	7	6	13	4	12	3
-1.0	11.0	81.0	3	6	9	7	5	32	2
-3.0	11.0	81.0	1	13	2
-5.0	11.0	81.0	1	17	2
-7.0	11.0	81.0	2	5	11	15	4
-9.0	11.0	81.0	4	6	14	6	13	7	3	26	2
-11.0	11.0	81.0	4	5	9	15	3	14	3	15	2
-11.0	9.0	81.0	1	12	4
-11.0	7.0	81.0	2	10	6	8	5
-11.0	5.0	81.0	3	7	12	9	7	9	2
-11.0	3.0	81.0	3	7	12	26	4	12	3
-11.0	1.0	81.0	2	19	4	21	3
-11.0	-1.0	81.0	4	6	8	8	5	31	4	21	2
-11.0	-3.0	81.0	2	5	4	7	3
-11.0	-5.0	81.0	4	5	9	8	5	29	4	27	2
-11.0	-7.0	81.0	2	10	6	7	4
-11.0	-9.0	81.0	2	15	3	12	3
-11.0	-11.0	81.0	4	8	13	5	7	6	5	28	3
-9.0	-11.0	81.0	4	8	13	7	11	9	7	7	6
-7.0	-11.0	81.0	2	5	6	26	3
-5.0	-11.0	81.0	1	7	4
-3.0	-11.0	81.0	4	6	9	14	5	7	5	5	5
-1.0	-11.0	81.0	2	7	11	23	3
1.0	-11.0	81.0	1	6	12
3.0	-11.0	81.0	3	5	11	5	9	6	5
5.0	-11.0	81.0	2	12	7	14	4
7.0	-11.0	81.0	1	8	13
9.0	-11.0	81.0	4	12	8	5	6	8	5	21	3
11.0	-11.0	81.0	4	7	14	4	13	8	5	30	4
11.0	-9.0	81.0	4	7	9	31	3	24	3	10	3
11.0	-7.0	81.0	3	8	6	15	5	13	4
11.0	-5.0	81.0	1	6	7
11.0	-3.0	81.0	1	6	7
11.0	-1.0	81.0	3	6	7	10	6	13	2
13.0	1.0	69.0	3	4	14	5	4	14	2
13.0	3.0	69.0	1	7	6
13.0	5.0	69.0	2	16	3	15	2
13.0	7.0	69.0	1	27	2
13.0	9.0	69.0	2	23	3	19	3
13.0	11.0	69.0	4	5	10	28	4	8	4	20	3
13.0	13.0	69.0	2	4	4	16	2
11.0	13.0	69.0	1	8	4
9.0	13.0	69.0	3	7	6	12	5	27	2
7.0	13.0	69.0	3	7	4	24	3	19	3
5.0	13.0	69.0	3	4	10	8	8	15	4
3.0	13.0	69.0	1	10	3
1.0	13.0	69.0	2	10	7	8	7
-1.0	13.0	69.0	4	7	12	16	4	13	3	6	3
-3.0	13.0	69.0	3	5	11	8	6	6	4
-5.0	13.0	69.0	4	6	13	6	11	14	8	21	2
-7.0	13.0	69.0	1	6	7
-9.0	13.0	69.0	3	7	10	6	7	29	3
-11.0	13.0	69.0	2	8	13	7	8
-13.0	13.0	69.0	2	5	13	24	4
-13.0	11.0	69.0	3	4	13	8	11	16	3
-13.0	9.0	69.0	4	6	13	7	10	5	7	14	3
-13.0	7.0	69.0	2	15	7	5	7
-13.0	5.0	69.0	3	7	13	7	11	27	4
-13.0	3.0	69.0	3	6	10	5	5	32	4
-13.0	1.0	69.0	1	13	3
-13.0	-1.0	69.0	3	6	12	5	5	13	2
-13.0	-3.0	69.0	4	5	6	10	4	30	3	19	3
-13.0	-5.0	69.0	4	4	5	18	4	15	4	14	3
-13.0	-7.0	69.0	3	6	11	6	5	16	3
-13.0	-9.0	69.0	1	8	10
-13.0	-11.0	69.0	3	13	5	8	4	14	2
-13.0	-13.0	69.0	3	6	8	7	5	23	3
-11.0	-13.0	69.0	2	7	14	20	4
-9.0	-13.0	69.0	4	6	13	14	5	32	3	26	2
-7.0	-13.0	69.0	4	6	6	6	6	15	4	18	3
-5.0	-13.0	69.0	4	4	12	4	11	26	4	21	3
-3.0	-13.0	69.0	3	5	13	8	5	26	4
-1.0	-13.0	69.0	2	7	7	7	4
1.0	-13.0	69.0	4	8	8	7	6	7	5	20	2
3.0	-13.0	69.0	1	8	2
5.0	-13.0	69.0	3	30	4	8	4	16	3
7.0	-13.0	69.0	3	6	5	6	5	13	3
9.0	-13.0	69.0	4	6	12	4	10	30	4	6	4
11.0	-13.0	69.0	3	30	4	23	4	14	4
13.0	-13.0	69.0	3	4	12	16	4	14	3
13.0	-11.0	69.0	4	7	9	12	5	12	3	9	3
13.0	-9.0	69.0	3	7	5	25	4	16	3
13.0	-7.0	69.0	2	29	3	16	2
13.0	-5.0	69.0	4	7	9	6	7	28	3	13	2
13.0	-3.0	69.0	2	18	3	26	2
13.0	-1.0	69.0	3	19	4	17	4	31	3
15.0	1.0	60.0	1	13	6
15.0	3.0	60.0	2	7	7	31	2
15.0	5.0	60.0	2	7	6	7	4
15.0	7.0	60.0	1	16	4
15.0	9.0	60.0	2	23	3	16	3
15.0	11.0	60.0	4	7	6	26	3	20	3	12	3
15.0	13.0	60.0	2	5	13	16	3
15.0	15.0	60.0	2	8	12	25	2
13.0	15.0	60.0	4	7	11	12	5	14	3	25	2
11.0	15.0	60.0	4	6	8	28	4	26	4	4	4
9.0	15.0	60.0	3	11	7	18	3	18	3
7.0	15.0	60.0	3	16	8	6	6	6	4
5.0	15.0	60.0	2	5	6	31	3
3.0	15.0	60.0	1	5	6
1.0	15.0	60.0	3	7	9	22	2	16	2
-1.0	15.0	60.0	2	5	12	22	3
-3.0	15.0	60.0	1	7	4
-5.0	15.0	60.0	4	13	4	23	3	21	3	20	3
-7.0	15.0	60.0	4	7	12	7	11	5	10	8	8
-9.0	15.0	60.0	2	5	8	18	3
-11.0	15.0	60.0	1	9	6
-13.0	15.0	60.0	3	5	11	10	7	12	4
-15.0	15.0	60.0	4	11	7	6	5	16	4	11	4
-15.0	13.0	60.0	4	5	11	6	5	29	3	26	2
-15.0	11.0	60.0	4	7	12	6	7	26	4	28	3
-15.0	9.0	60.0	4	5	13	5	7	4	6	22	3
-15.0	7.0	60.0	1	6	13
-15.0	5.0	60.0	2	6	13	18	3
-15.0	3.0	60.0	4	25	4	22	3	14	3	25	2
-15.0	1.0	60.0	3	8	12	15	8	15	5
-15.0	-1.0	60.0	3	5	8	12	5	5	5
-15.0	-3.0	60.0	2	29	3	18	3
-15.0	-5.0	60.0	4	6	13	13	4	12	3	8	3
-15.0	-7.0	60.0	1	27	4
-15.0	-9.0	60.0	4	6	13	6	12	5	11	15	6
-15.0	-11.0	60.0	1	19	2
-15.0	-13.0	60.0	1	7	13
-15.0	-15.0	60.0	3	7	12	8	4	9	2
-13.0	-15.0	60.0	2	6	9	26	3
-11.0	-15.0	60.0	2	6	3	22	2
-9.0	-15.0	60.0	2	7	10	12	8
-7.0	-15.0	60.0	2	26	3	16	3
-5.0	-15.0	60.0	1	30	3
-3.0	-15.0	60.0	4	9	8	5	7	19	3	22	2
-1.0	-15.0	60.0	2	7	8	32	3
1.0	-15.0	60.0	1	8	11
3.0	-15.0	60.0	4	5	14	6	11	5	9	6	4
5.0	-15.0	60.0	4	4	13	20	4	26	3	18	2
7.0	-15.0	60.0	4	7	13	5	10	6	6	24	3
9.0	-15.0	60.0	4	5	11	23	4	17	4	16	2
11.0	-15.0	60.0	2	6	6	9	4
13.0	-15.0	60.0	4	6	10	6	6	10	5	5	2
15.0	-15.0	60.0	1	7	5
15.0	-13.0	60.0	3	8	9	13	5	16	3
15.0	-11.0	60.0	1	13	5
15.0	-9.0	60.0	3	15	4	14	3	18	2
15.0	-7.0	60.0	3	5	11	7	7	14	3
15.0	-5.0	60.0	1	25	2
15.0	-3.0	60.0	2	5	13	8	6
15.0	-1.0	60.0	2	31	3	14	2